&bands 
    prefix  = 'scf'
    outdir = 'out'
    filband = 'si'
    lsym = .true.
 /
