 &control
    calculation='bands'
    prefix='scf',
    pseudo_dir = '../../pseudos',
    outdir='out'
 /
 &system
    ibrav =  2, 
    celldm(1) = 10.20, 
    nat =  2, 
    ntyp = 1,
    ecutwfc = 30.0,
    nbnd = 8
 /
 &electrons
    conv_thr =  1.0d-8
 /
ATOMIC_SPECIES
 Si  28.086 Si.pbe-mt_fhi.UPF
ATOMIC_POSITIONS
 Si 0.00 0.00 0.00
 Si 0.25 0.25 0.25
K_POINTS crystal
          39
       0.0000000000    0.5000000000    0.0000000000    1.0  L
       0.0000000000    0.4444444444    0.0000000000    1.0   
       0.0000000000    0.3888888889    0.0000000000    1.0   
       0.0000000000    0.3333333333    0.0000000000    1.0   
       0.0000000000    0.2777777778    0.0000000000    1.0   
       0.0000000000    0.2222222222    0.0000000000    1.0   
       0.0000000000    0.1666666667    0.0000000000    1.0   
       0.0000000000    0.1111111111    0.0000000000    1.0   
       0.0000000000    0.0555555556    0.0000000000    1.0   
       0.0000000000    0.0000000000    0.0000000000    1.0  G
      -0.0500000000    0.0000000000   -0.0500000000    1.0   
      -0.1000000000    0.0000000000   -0.1000000000    1.0   
      -0.1500000000    0.0000000000   -0.1500000000    1.0   
      -0.2000000000    0.0000000000   -0.2000000000    1.0   
      -0.2500000000    0.0000000000   -0.2500000000    1.0   
      -0.3000000000    0.0000000000   -0.3000000000    1.0   
      -0.3500000000    0.0000000000   -0.3500000000    1.0   
      -0.4000000000    0.0000000000   -0.4000000000    1.0   
      -0.4500000000    0.0000000000   -0.4500000000    1.0   
      -0.5000000000    0.0000000000   -0.5000000000    1.0  X
      -0.4375000000    0.0468750000   -0.4843750000    1.0   
      -0.3750000000    0.0937500000   -0.4687500000    1.0   
      -0.3125000000    0.1406250000   -0.4531250000    1.0   
      -0.2500000000    0.1875000000   -0.4375000000    1.0   
      -0.1875000000    0.2343750000   -0.4218750000    1.0   
      -0.1250000000    0.2812500000   -0.4062500000    1.0   
      -0.0625000000    0.3281250000   -0.3906250000    1.0   
       0.0000000000    0.3750000000   -0.3750000000    1.0  K
       0.0000000000    0.3409090909   -0.3409090909    1.0   
       0.0000000000    0.3068181818   -0.3068181818    1.0   
       0.0000000000    0.2727272727   -0.2727272727    1.0   
       0.0000000000    0.2386363636   -0.2386363636    1.0   
       0.0000000000    0.2045454545   -0.2045454545    1.0   
       0.0000000000    0.1704545455   -0.1704545455    1.0   
       0.0000000000    0.1363636364   -0.1363636364    1.0   
       0.0000000000    0.1022727273   -0.1022727273    1.0   
       0.0000000000    0.0681818182   -0.0681818182    1.0   
       0.0000000000    0.0340909091   -0.0340909091    1.0   
       0.0000000000    0.0000000000    0.0000000000    1.0  G
