 &control
    calculation = 'scf'
    restart_mode='from_scratch',
    prefix='scf',
    pseudo_dir = '../../pseudos',
    outdir='out'
 /
 &system
    ibrav =  2, 
    celldm(1) = 10.20, 
    nat =  2, 
    ntyp = 1,
    ecutwfc = 20.0,
    nbnd = 8
 /
 &electrons
    conv_thr =  1.0d-8
 /
ATOMIC_SPECIES
 Si  28.086 Si.pbe-mt_fhi.UPF
ATOMIC_POSITIONS
 Si 0.00 0.00 0.00
 Si 0.25 0.25 0.25
K_POINTS{automatic}
8 8 8 0 0 0
