&CONTROL
    calculation = 'scf'
    prefix = 'scf'
    pseudo_dir = '../../pseudos'
    outdir = 'out'
    wf_collect = .true.
/
&SYSTEM
    ibrav = 1
    a = 12
    nat = 3 
    ntyp = 2
    ecutwfc = 85.d0
    nbnd = 12
/
&ELECTRONS
    diago_full_acc = .true.
    assume_isolated = 'mp'
    conv_thr = 1.d-8
/
ATOMIC_SPECIES
H 1.00794 H.pbe-mt_fhi.UPF
O 15.9994 O.pde-mt_fhi.UPF
ATOMIC_POSITIONS {angstrom}
O 6.0 6.0    6.1173
H 6.0 6.7572 5.5308
H 6.0 5.2428 5.5308
